%OldChk=M062X_1_A.chk
%Chk=M062X_1_A_NO.chk
# Guess=(Save,Only,NaturalOrbitals) Geom=AllCheck ChkBasis
