%OldChk=MN15_3_A.chk
%Chk=MN15_3_A_NO.chk
# Guess=(Save,Only,NaturalOrbitals) Geom=AllCheck ChkBasis
