%OldChk=MN15_3_C.chk
%Chk=MN15_3_C_NO.chk
# Guess=(Save,Only,NaturalOrbitals) Geom=AllCheck ChkBasis 
