%OldChk=M06L_3_A.chk
%Chk=M06L_3_A_NO.chk
# Guess=(Save,Only,NaturalOrbitals) Geom=AllCheck ChkBasis
