%OldChk=MN15_1_A.chk
%Chk=MN15_1_A_NO.chk
# Guess=(Save,Only,NaturalOrbitals) Geom=AllCheck ChkBasis
