%OldChk=M06L_3_C.chk
%Chk=M06L_3_C_NO.chk
# Guess=(Save,Only,NaturalOrbitals) Geom=AllCheck ChkBasis 
