%OldChk=M062X_3_A.chk
%Chk=M062X_3_A_NO.chk
# Guess=(Save,Only,NaturalOrbitals) Geom=AllCheck ChkBasis
