%NProcShared=24
%Mem=80GB
%Chk=M062X_3_A.chk
#p UM062X/def2TZVP SCF=XQC DensityFit OPT FREQ GEOM=AllCheckpoint Guess=Read
